NAME : sim51.76480.tour
COMMENT : Length = 76480
COMMENT : Found by LKH [Keld Helsgaun] Wed Aug 29 08:43:09 2018
TYPE : TOUR
DIMENSION : 51
TOUR_SECTION
1
15
41
4
19
40
42
45
39
33
9
25
36
14
21
12
13
31
34
27
35
43
46
23
30
48
7
24
10
3
51
49
28
2
37
29
50
47
5
18
17
16
26
20
32
11
6
8
38
44
22
-1
EOF
